language ESSENCE' 1.0
letting lastdx=101
letting cage be [
[14,6,15,5,15,0,0, 0,0, 0,0],
[38,2,8,3,8,3,7,2,7,2,6],
[38,10,1,9,1,8,1,8,2,8,3],
[11,2,12,1,12,0,0, 0,0, 0,0],
[15,14,6,0,0, 0,0, 0,0, 0,0],
[17,4,11,5,11,0,0, 0,0, 0,0],
[25,5,10,4,10,3,10,0,0, 0,0],
[16,5,14,0,0, 0,0, 0,0, 0,0],
[8,3,5,0,0, 0,0, 0,0, 0,0],
[16,2,9,0,0, 0,0, 0,0, 0,0],
[2,13,4,0,0, 0,0, 0,0, 0,0],
[14,1,15,0,0, 0,0, 0,0, 0,0],
[20,6,1,6,2,0,0, 0,0, 0,0],
[7,7,4,0,0, 0,0, 0,0, 0,0],
[35,16,15,16,14,15,14,15,15,0,0],
[21,4,4,3,4,3,3,0,0, 0,0],
[23,12,9,13,9,14,9,14,8,0,0],
[44,12,8,12,7,13,7,13,8,14,7],
[7,10,10,0,0, 0,0, 0,0, 0,0],
[12,7,9,0,0, 0,0, 0,0, 0,0],
[5,3,9,0,0, 0,0, 0,0, 0,0],
[35,14,5,14,4,15,4,16,4,0,0],
[4,10,7,0,0, 0,0, 0,0, 0,0],
[1,9,9,0,0, 0,0, 0,0, 0,0],
[29,13,5,12,5,12,4,0,0, 0,0],
[6,14,3,0,0, 0,0, 0,0, 0,0],
[10,16,3,16,2,0,0, 0,0, 0,0],
[20,9,14,9,13,0,0, 0,0, 0,0],
[23,13,6,12,6,11,6,0,0, 0,0],
[5,10,12,0,0, 0,0, 0,0, 0,0],
[2,3,16,0,0, 0,0, 0,0, 0,0],
[7,14,14,14,15,0,0, 0,0, 0,0],
[66,12,2,12,1,13,1,13,2,13,3],
[8,2,13,0,0, 0,0, 0,0, 0,0],
[33,15,11,16,11,16,10,0,0, 0,0],
[13,1,8,0,0, 0,0, 0,0, 0,0],
[11,10,3,0,0, 0,0, 0,0, 0,0],
[8,15,10,0,0, 0,0, 0,0, 0,0],
[34,9,15,10,15,10,14,0,0, 0,0],
[11,1,6,1,7,0,0, 0,0, 0,0],
[16,16,9,16,8,0,0, 0,0, 0,0],
[22,8,16,7,16,0,0, 0,0, 0,0],
[7,9,3,0,0, 0,0, 0,0, 0,0],
[22,11,7,11,8,11,9,0,0, 0,0],
[45,16,12,15,12,14,12,14,11,14,10],
[29,4,14,4,13,4,12,3,12,0,0],
[50,1,13,1,14,2,14,3,14,3,13],
[52,10,8,10,9,9,8,9,7,0,0],
[16,7,12,0,0, 0,0, 0,0, 0,0],
[13,2,15,0,0, 0,0, 0,0, 0,0],
[29,4,2,4,3,0,0, 0,0, 0,0],
[13,12,15,12,16,0,0, 0,0, 0,0],
[8,5,16,6,16,0,0, 0,0, 0,0],
[12,9,10,8,10,0,0, 0,0, 0,0],
[2,2,1,0,0, 0,0, 0,0, 0,0],
[22,10,5,10,4,9,4,9,5,0,0],
[10,4,9,0,0, 0,0, 0,0, 0,0],
[5,6,3,0,0, 0,0, 0,0, 0,0],
[5,8,11,0,0, 0,0, 0,0, 0,0],
[47,15,7,15,6,15,5,16,5,0,0],
[10,1,2,1,1,0,0, 0,0, 0,0],
[25,5,8,4,8,5,9,0,0, 0,0],
[20,4,15,3,15,4,16,0,0, 0,0],
[7,11,16,11,15,0,0, 0,0, 0,0],
[4,15,3,0,0, 0,0, 0,0, 0,0],
[18,7,7,8,7,8,6,7,6,0,0],
[11,1,11,0,0, 0,0, 0,0, 0,0],
[12,1,3,0,0, 0,0, 0,0, 0,0],
[24,1,9,1,10,2,10,0,0, 0,0],
[20,1,16,2,16,0,0, 0,0, 0,0],
[27,2,2,2,3,3,2,0,0, 0,0],
[21,2,11,3,11,0,0, 0,0, 0,0],
[16,3,1,0,0, 0,0, 0,0, 0,0],
[8,4,1,0,0, 0,0, 0,0, 0,0],
[10,5,1,5,2,0,0, 0,0, 0,0],
[10,6,8,0,0, 0,0, 0,0, 0,0],
[33,6,9,6,10,6,11,7,11,7,10],
[15,6,14,7,14,0,0, 0,0, 0,0],
[1,7,1,0,0, 0,0, 0,0, 0,0],
[19,7,2,7,3,0,0, 0,0, 0,0],
[14,7,8,0,0, 0,0, 0,0, 0,0],
[21,7,15,8,15,0,0, 0,0, 0,0],
[18,8,4,8,5,0,0, 0,0, 0,0],
[17,8,8,8,9,0,0, 0,0, 0,0],
[5,9,2,0,0, 0,0, 0,0, 0,0],
[23,9,6,10,6,0,0, 0,0, 0,0],
[14,9,11,0,0, 0,0, 0,0, 0,0],
[19,9,16,10,16,0,0, 0,0, 0,0],
[2,10,2,0,0, 0,0, 0,0, 0,0],
[8,10,11,0,0, 0,0, 0,0, 0,0],
[31,11,1,11,2,11,3,12,3,0,0],
[19,11,4,11,5,0,0, 0,0, 0,0],
[16,11,10,0,0, 0,0, 0,0, 0,0],
[10,11,11,0,0, 0,0, 0,0, 0,0],
[15,11,12,0,0, 0,0, 0,0, 0,0],
[23,12,10,12,11,12,12,12,13,0,0],
[11,13,15,0,0, 0,0, 0,0, 0,0],
[46,13,16,14,16,15,16,16,16,0,0],
[54,14,1,14,2,15,2,15,1,16,1],
[17,15,8,15,9,0,0, 0,0, 0,0],
[16,15,13,16,13,0,0, 0,0, 0,0],
[8,16,6,16,7,0,0, 0,0, 0,0]
]
